c .nnodes 80
c .nvars 96
c .nsuppvars 96
c .ids  0 1 2 3 4 5 6 7 8 9 10 11 12 13 14 15 16 17 18 19 20 21 22 23 24 25 26 27 28 29 30 31 32 33 34 35 36 37 38 39 40 41 42 43 44 45 46 47 48 49 50 51 52 53 54 55 56 57 58 59 60 61 62 63 64 65 66 67 68 69 70 71 72 73 74 75 76 77 78 79 80 81 82 83 84 85 86 87 88 89 90 91 92 93 94 95 
c .cnfids  285 317 283 316 281 315 279 314 284 277 313 275 312 273 311 282 271 310 269 309 280 267 308 265 307 278 263 306 261 305 276 259 304 257 303 274 255 302 253 301 272 251 300 249 299 270 247 298 245 297 268 243 296 241 295 266 239 294 237 293 264 235 292 233 291 262 231 290 229 223 289 286 260 227 225 288 287 258 256 254 252 250 248 246 244 242 240 238 236 234 232 230 228 222 226 224 
c .nroots 1
c .rootids 2
p cnf 318 914
3 4 -128 0
3 4 221 0
3 4 -174 0
-3 -4 0
-3 128 174 -221 0
4 -5 -66 0
4 -64 -66 0
4 -65 -66 0
-4 66 0
-4 5 64 65 0
5 -282 6 63 0
5 283 6 63 0
-5 -63 0
-5 -6 0
-5 282 -283 0
6 278 7 62 0
6 -279 7 62 0
-6 -62 0
-6 -7 0
-6 -278 279 0
7 -278 8 61 0
7 279 8 61 0
-7 -61 0
-7 -8 0
-7 278 -279 0
8 274 9 60 0
8 -275 9 60 0
-8 -60 0
-8 -9 0
-8 -274 275 0
9 -274 10 59 0
9 275 10 59 0
-9 -59 0
-9 -10 0
-9 274 -275 0
10 270 11 58 0
10 -271 11 58 0
-10 -58 0
-10 -11 0
-10 -270 271 0
11 -270 12 57 0
11 271 12 57 0
-11 -57 0
-11 -12 0
-11 270 -271 0
12 266 13 56 0
12 -267 13 56 0
-12 -56 0
-12 -13 0
-12 -266 267 0
13 -266 14 55 0
13 267 14 55 0
-13 -55 0
-13 -14 0
-13 266 -267 0
14 262 15 54 0
14 -263 15 54 0
-14 -54 0
-14 -15 0
-14 -262 263 0
15 -262 16 53 0
15 263 16 53 0
-15 -53 0
-15 -16 0
-15 262 -263 0
16 258 17 52 0
16 -259 17 52 0
-16 -52 0
-16 -17 0
-16 -258 259 0
17 -258 18 51 0
17 259 18 51 0
-17 -51 0
-17 -18 0
-17 258 -259 0
18 254 19 50 0
18 -255 19 50 0
-18 -50 0
-18 -19 0
-18 -254 255 0
19 -254 20 49 0
19 255 20 49 0
-19 -49 0
-19 -20 0
-19 254 -255 0
20 250 21 48 0
20 -251 21 48 0
-20 -48 0
-20 -21 0
-20 -250 251 0
21 -250 22 47 0
21 251 22 47 0
-21 -47 0
-21 -22 0
-21 250 -251 0
22 246 23 46 0
22 -247 23 46 0
-22 -46 0
-22 -23 0
-22 -246 247 0
23 -246 24 45 0
23 247 24 45 0
-23 -45 0
-23 -24 0
-23 246 -247 0
24 242 25 44 0
24 -243 25 44 0
-24 -44 0
-24 -25 0
-24 -242 243 0
25 -242 26 43 0
25 243 26 43 0
-25 -43 0
-25 -26 0
-25 242 -243 0
26 238 27 42 0
26 -239 27 42 0
-26 -42 0
-26 -27 0
-26 -238 239 0
27 -238 28 41 0
27 239 28 41 0
-27 -41 0
-27 -28 0
-27 238 -239 0
28 234 29 40 0
28 -235 29 40 0
-28 -40 0
-28 -29 0
-28 -234 235 0
29 -234 30 39 0
29 235 30 39 0
-29 -39 0
-29 -30 0
-29 234 -235 0
30 230 31 38 0
30 -231 31 38 0
-30 -38 0
-30 -31 0
-30 -230 231 0
31 -230 32 37 0
31 231 32 37 0
-31 -37 0
-31 -32 0
-31 230 -231 0
32 226 33 36 0
32 -227 33 36 0
-32 -36 0
-32 -33 0
-32 -226 227 0
33 -226 34 35 0
33 227 34 35 0
-33 -35 0
-33 -34 0
-33 226 -227 0
34 222 -223 -225 0
34 222 -223 224 0
-34 -222 0
-34 223 0
-34 -224 225 0
35 224 -225 0
-35 -224 0
-35 225 0
36 -228 229 0
-36 228 0
-36 -229 0
37 228 -229 0
-37 -228 0
-37 229 0
38 -232 233 0
-38 232 0
-38 -233 0
39 232 -233 0
-39 -232 0
-39 233 0
40 -236 237 0
-40 236 0
-40 -237 0
41 236 -237 0
-41 -236 0
-41 237 0
42 -240 241 0
-42 240 0
-42 -241 0
43 240 -241 0
-43 -240 0
-43 241 0
44 -244 245 0
-44 244 0
-44 -245 0
45 244 -245 0
-45 -244 0
-45 245 0
46 -248 249 0
-46 248 0
-46 -249 0
47 248 -249 0
-47 -248 0
-47 249 0
48 -252 253 0
-48 252 0
-48 -253 0
49 252 -253 0
-49 -252 0
-49 253 0
50 -256 257 0
-50 256 0
-50 -257 0
51 256 -257 0
-51 -256 0
-51 257 0
52 -260 261 0
-52 260 0
-52 -261 0
53 260 -261 0
-53 -260 0
-53 261 0
54 -264 265 0
-54 264 0
-54 -265 0
55 264 -265 0
-55 -264 0
-55 265 0
56 -268 269 0
-56 268 0
-56 -269 0
57 268 -269 0
-57 -268 0
-57 269 0
58 -272 273 0
-58 272 0
-58 -273 0
59 272 -273 0
-59 -272 0
-59 273 0
60 -276 277 0
-60 276 0
-60 -277 0
61 276 -277 0
-61 -276 0
-61 277 0
62 -280 281 0
-62 280 0
-62 -281 0
63 280 -281 0
-63 -280 0
-63 281 0
64 -284 285 0
-64 284 0
-64 -285 0
65 -282 283 0
-65 282 0
-65 -283 0
66 284 285 67 0
66 -284 -317 67 0
-66 -67 0
-66 284 -285 0
-66 -284 317 0
67 -284 68 127 0
67 317 68 127 0
-67 -127 0
-67 -68 0
-67 284 -317 0
68 282 69 126 0
68 -316 69 126 0
-68 -126 0
-68 -69 0
-68 -282 316 0
69 -278 70 125 0
69 314 70 125 0
-69 -125 0
-69 -70 0
-69 278 -314 0
70 278 71 124 0
70 -314 71 124 0
-70 -124 0
-70 -71 0
-70 -278 314 0
71 -274 72 123 0
71 312 72 123 0
-71 -123 0
-71 -72 0
-71 274 -312 0
72 274 73 122 0
72 -312 73 122 0
-72 -122 0
-72 -73 0
-72 -274 312 0
73 -270 74 121 0
73 310 74 121 0
-73 -121 0
-73 -74 0
-73 270 -310 0
74 270 75 120 0
74 -310 75 120 0
-74 -120 0
-74 -75 0
-74 -270 310 0
75 -266 76 119 0
75 308 76 119 0
-75 -119 0
-75 -76 0
-75 266 -308 0
76 266 77 118 0
76 -308 77 118 0
-76 -118 0
-76 -77 0
-76 -266 308 0
77 -262 78 117 0
77 306 78 117 0
-77 -117 0
-77 -78 0
-77 262 -306 0
78 262 79 116 0
78 -306 79 116 0
-78 -116 0
-78 -79 0
-78 -262 306 0
79 -258 80 115 0
79 304 80 115 0
-79 -115 0
-79 -80 0
-79 258 -304 0
80 258 81 114 0
80 -304 81 114 0
-80 -114 0
-80 -81 0
-80 -258 304 0
81 -254 82 113 0
81 302 82 113 0
-81 -113 0
-81 -82 0
-81 254 -302 0
82 254 83 112 0
82 -302 83 112 0
-82 -112 0
-82 -83 0
-82 -254 302 0
83 -250 84 111 0
83 300 84 111 0
-83 -111 0
-83 -84 0
-83 250 -300 0
84 250 85 110 0
84 -300 85 110 0
-84 -110 0
-84 -85 0
-84 -250 300 0
85 -246 86 109 0
85 298 86 109 0
-85 -109 0
-85 -86 0
-85 246 -298 0
86 246 87 108 0
86 -298 87 108 0
-86 -108 0
-86 -87 0
-86 -246 298 0
87 -242 88 107 0
87 296 88 107 0
-87 -107 0
-87 -88 0
-87 242 -296 0
88 242 89 106 0
88 -296 89 106 0
-88 -106 0
-88 -89 0
-88 -242 296 0
89 -238 90 105 0
89 294 90 105 0
-89 -105 0
-89 -90 0
-89 238 -294 0
90 238 91 104 0
90 -294 91 104 0
-90 -104 0
-90 -91 0
-90 -238 294 0
91 -234 92 103 0
91 292 92 103 0
-91 -103 0
-91 -92 0
-91 234 -292 0
92 234 93 102 0
92 -292 93 102 0
-92 -102 0
-92 -93 0
-92 -234 292 0
93 -230 94 101 0
93 290 94 101 0
-93 -101 0
-93 -94 0
-93 230 -290 0
94 230 95 100 0
94 -290 95 100 0
-94 -100 0
-94 -95 0
-94 -230 290 0
95 -226 96 99 0
95 288 96 99 0
-95 -99 0
-95 -96 0
-95 226 -288 0
96 224 97 98 0
96 -287 97 98 0
-96 -98 0
-96 -97 0
-96 -224 287 0
97 -222 286 287 0
97 -222 -224 286 0
-97 222 0
-97 -286 0
-97 224 -287 0
98 -226 288 0
-98 226 0
-98 -288 0
99 228 -289 0
-99 -228 0
-99 289 0
100 -228 289 0
-100 228 0
-100 -289 0
101 232 -291 0
-101 -232 0
-101 291 0
102 -232 291 0
-102 232 0
-102 -291 0
103 236 -293 0
-103 -236 0
-103 293 0
104 -236 293 0
-104 236 0
-104 -293 0
105 240 -295 0
-105 -240 0
-105 295 0
106 -240 295 0
-106 240 0
-106 -295 0
107 244 -297 0
-107 -244 0
-107 297 0
108 -244 297 0
-108 244 0
-108 -297 0
109 248 -299 0
-109 -248 0
-109 299 0
110 -248 299 0
-110 248 0
-110 -299 0
111 252 -301 0
-111 -252 0
-111 301 0
112 -252 301 0
-112 252 0
-112 -301 0
113 256 -303 0
-113 -256 0
-113 303 0
114 -256 303 0
-114 256 0
-114 -303 0
115 260 -305 0
-115 -260 0
-115 305 0
116 -260 305 0
-116 260 0
-116 -305 0
117 264 -307 0
-117 -264 0
-117 307 0
118 -264 307 0
-118 264 0
-118 -307 0
119 268 -309 0
-119 -268 0
-119 309 0
120 -268 309 0
-120 268 0
-120 -309 0
121 272 -311 0
-121 -272 0
-121 311 0
122 -272 311 0
-122 272 0
-122 -311 0
123 276 -313 0
-123 -276 0
-123 313 0
124 -276 313 0
-124 276 0
-124 -313 0
125 280 -315 0
-125 -280 0
-125 315 0
126 -280 315 0
-126 280 0
-126 -315 0
127 282 -316 0
-127 -282 0
-127 316 0
128 284 129 130 0
128 -317 129 130 0
-128 -130 0
-128 -129 0
-128 -284 317 0
129 -282 316 0
-129 282 0
-129 -316 0
130 -282 125 131 0
130 316 125 131 0
-130 -131 0
-130 -125 0
-130 282 -316 0
131 280 132 133 0
131 -315 132 133 0
-131 -133 0
-131 -132 0
-131 -280 315 0
132 -278 314 0
-132 278 0
-132 -314 0
133 -278 123 134 0
133 314 123 134 0
-133 -134 0
-133 -123 0
-133 278 -314 0
134 276 135 136 0
134 -313 135 136 0
-134 -136 0
-134 -135 0
-134 -276 313 0
135 -274 312 0
-135 274 0
-135 -312 0
136 -274 121 137 0
136 312 121 137 0
-136 -137 0
-136 -121 0
-136 274 -312 0
137 272 138 139 0
137 -311 138 139 0
-137 -139 0
-137 -138 0
-137 -272 311 0
138 -270 310 0
-138 270 0
-138 -310 0
139 -270 119 140 0
139 310 119 140 0
-139 -140 0
-139 -119 0
-139 270 -310 0
140 268 141 142 0
140 -309 141 142 0
-140 -142 0
-140 -141 0
-140 -268 309 0
141 -266 308 0
-141 266 0
-141 -308 0
142 -266 117 143 0
142 308 117 143 0
-142 -143 0
-142 -117 0
-142 266 -308 0
143 264 144 145 0
143 -307 144 145 0
-143 -145 0
-143 -144 0
-143 -264 307 0
144 -262 306 0
-144 262 0
-144 -306 0
145 -262 115 146 0
145 306 115 146 0
-145 -146 0
-145 -115 0
-145 262 -306 0
146 260 147 148 0
146 -305 147 148 0
-146 -148 0
-146 -147 0
-146 -260 305 0
147 -258 304 0
-147 258 0
-147 -304 0
148 -258 113 149 0
148 304 113 149 0
-148 -149 0
-148 -113 0
-148 258 -304 0
149 256 150 151 0
149 -303 150 151 0
-149 -151 0
-149 -150 0
-149 -256 303 0
150 -254 302 0
-150 254 0
-150 -302 0
151 -254 111 152 0
151 302 111 152 0
-151 -152 0
-151 -111 0
-151 254 -302 0
152 252 153 154 0
152 -301 153 154 0
-152 -154 0
-152 -153 0
-152 -252 301 0
153 -250 300 0
-153 250 0
-153 -300 0
154 -250 109 155 0
154 300 109 155 0
-154 -155 0
-154 -109 0
-154 250 -300 0
155 248 156 157 0
155 -299 156 157 0
-155 -157 0
-155 -156 0
-155 -248 299 0
156 -246 298 0
-156 246 0
-156 -298 0
157 -246 107 158 0
157 298 107 158 0
-157 -158 0
-157 -107 0
-157 246 -298 0
158 244 159 160 0
158 -297 159 160 0
-158 -160 0
-158 -159 0
-158 -244 297 0
159 -242 296 0
-159 242 0
-159 -296 0
160 -242 105 161 0
160 296 105 161 0
-160 -161 0
-160 -105 0
-160 242 -296 0
161 240 162 163 0
161 -295 162 163 0
-161 -163 0
-161 -162 0
-161 -240 295 0
162 -238 294 0
-162 238 0
-162 -294 0
163 -238 103 164 0
163 294 103 164 0
-163 -164 0
-163 -103 0
-163 238 -294 0
164 236 165 166 0
164 -293 165 166 0
-164 -166 0
-164 -165 0
-164 -236 293 0
165 -234 292 0
-165 234 0
-165 -292 0
166 -234 101 167 0
166 292 101 167 0
-166 -167 0
-166 -101 0
-166 234 -292 0
167 232 168 169 0
167 -291 168 169 0
-167 -169 0
-167 -168 0
-167 -232 291 0
168 -230 290 0
-168 230 0
-168 -290 0
169 -230 99 170 0
169 290 99 170 0
-169 -170 0
-169 -99 0
-169 230 -290 0
170 228 98 171 0
170 -289 98 171 0
-170 -171 0
-170 -98 0
-170 -228 289 0
171 -226 172 173 0
171 288 172 173 0
-171 -173 0
-171 -172 0
-171 226 -288 0
172 224 -287 0
-172 -224 0
-172 287 0
173 222 -286 -287 0
173 222 224 -286 0
-173 -222 0
-173 286 0
-173 -224 287 0
174 -284 175 176 0
174 285 175 176 0
-174 -176 0
-174 -175 0
-174 284 -285 0
175 282 -283 0
-175 -282 0
-175 283 0
176 282 62 177 0
176 -283 62 177 0
-176 -177 0
-176 -62 0
-176 -282 283 0
177 -280 178 179 0
177 281 178 179 0
-177 -179 0
-177 -178 0
-177 280 -281 0
178 278 -279 0
-178 -278 0
-178 279 0
179 278 60 180 0
179 -279 60 180 0
-179 -180 0
-179 -60 0
-179 -278 279 0
180 -276 181 182 0
180 277 181 182 0
-180 -182 0
-180 -181 0
-180 276 -277 0
181 274 -275 0
-181 -274 0
-181 275 0
182 274 58 183 0
182 -275 58 183 0
-182 -183 0
-182 -58 0
-182 -274 275 0
183 -272 184 185 0
183 273 184 185 0
-183 -185 0
-183 -184 0
-183 272 -273 0
184 270 -271 0
-184 -270 0
-184 271 0
185 270 56 186 0
185 -271 56 186 0
-185 -186 0
-185 -56 0
-185 -270 271 0
186 -268 187 188 0
186 269 187 188 0
-186 -188 0
-186 -187 0
-186 268 -269 0
187 266 -267 0
-187 -266 0
-187 267 0
188 266 54 189 0
188 -267 54 189 0
-188 -189 0
-188 -54 0
-188 -266 267 0
189 -264 190 191 0
189 265 190 191 0
-189 -191 0
-189 -190 0
-189 264 -265 0
190 262 -263 0
-190 -262 0
-190 263 0
191 262 52 192 0
191 -263 52 192 0
-191 -192 0
-191 -52 0
-191 -262 263 0
192 -260 193 194 0
192 261 193 194 0
-192 -194 0
-192 -193 0
-192 260 -261 0
193 258 -259 0
-193 -258 0
-193 259 0
194 258 50 195 0
194 -259 50 195 0
-194 -195 0
-194 -50 0
-194 -258 259 0
195 -256 196 197 0
195 257 196 197 0
-195 -197 0
-195 -196 0
-195 256 -257 0
196 254 -255 0
-196 -254 0
-196 255 0
197 254 48 198 0
197 -255 48 198 0
-197 -198 0
-197 -48 0
-197 -254 255 0
198 -252 199 200 0
198 253 199 200 0
-198 -200 0
-198 -199 0
-198 252 -253 0
199 250 -251 0
-199 -250 0
-199 251 0
200 250 46 201 0
200 -251 46 201 0
-200 -201 0
-200 -46 0
-200 -250 251 0
201 -248 202 203 0
201 249 202 203 0
-201 -203 0
-201 -202 0
-201 248 -249 0
202 246 -247 0
-202 -246 0
-202 247 0
203 246 44 204 0
203 -247 44 204 0
-203 -204 0
-203 -44 0
-203 -246 247 0
204 -244 205 206 0
204 245 205 206 0
-204 -206 0
-204 -205 0
-204 244 -245 0
205 242 -243 0
-205 -242 0
-205 243 0
206 242 42 207 0
206 -243 42 207 0
-206 -207 0
-206 -42 0
-206 -242 243 0
207 -240 208 209 0
207 241 208 209 0
-207 -209 0
-207 -208 0
-207 240 -241 0
208 238 -239 0
-208 -238 0
-208 239 0
209 238 40 210 0
209 -239 40 210 0
-209 -210 0
-209 -40 0
-209 -238 239 0
210 -236 211 212 0
210 237 211 212 0
-210 -212 0
-210 -211 0
-210 236 -237 0
211 234 -235 0
-211 -234 0
-211 235 0
212 234 38 213 0
212 -235 38 213 0
-212 -213 0
-212 -38 0
-212 -234 235 0
213 -232 214 215 0
213 233 214 215 0
-213 -215 0
-213 -214 0
-213 232 -233 0
214 230 -231 0
-214 -230 0
-214 231 0
215 230 36 216 0
215 -231 36 216 0
-215 -216 0
-215 -36 0
-215 -230 231 0
216 -228 217 218 0
216 229 217 218 0
-216 -218 0
-216 -217 0
-216 228 -229 0
217 226 -227 0
-217 -226 0
-217 227 0
218 226 219 220 0
218 -227 219 220 0
-218 -220 0
-218 -219 0
-218 -226 227 0
219 -224 225 0
-219 224 0
-219 -225 0
220 -222 223 -224 0
220 -222 223 225 0
-220 222 0
-220 -223 0
-220 224 -225 0
221 -284 -285 0
221 284 317 0
-221 -284 285 0
-221 284 -317 0
318 0
2 3 0
-2 -3 0
2 0

